10J3M/DAT/10J3MULA-14.dat
10 3
16.0693 258.2224
27.4898 755.6891
10.302 106.1312
36.3677 1322.6096
19.6195 384.9248
12.1159 146.795
46.9652 2205.73
24.1878 585.0497
9.7508 95.0781
2.5841 6.6776
3602.1805