10J3M/SOL/10J3MULA-14.sol
solution status: optimal solution found
objective value:                     68.4840333333333
x#1#3                                               1 	(obj:0)
x#2#1                                               1 	(obj:0)
x#3#3                                               1 	(obj:0)
x#4#2                                               1 	(obj:0)
x#5#1                                               1 	(obj:0)
x#6#3                                               1 	(obj:0)
x#7#1                                0.45511854167199 	(obj:0)
x#7#2                               0.168817195143071 	(obj:0)
x#7#3                                0.37606426318494 	(obj:0)
x#8#2                                               1 	(obj:0)
x#9#3                                               1 	(obj:0)
x#10#3                                              1 	(obj:0)
z                                    68.4840333333333 	(obj:1)
